c description: Tseitin formula on , with odd charge
c generator: CNFgen (0.9.0)
c copyright: (C) 2012-2020 Massimo Lauria <massimo.lauria@uniroma1.it>
c url: https://massimolauria.net/cnfgen
c
p cnf 30 376
1 2 3 4 5 6 0
1 2 3 4 -5 -6 0
1 2 3 -4 5 -6 0
1 2 3 -4 -5 6 0
1 2 -3 4 5 -6 0
1 2 -3 4 -5 6 0
1 2 -3 -4 5 6 0
1 2 -3 -4 -5 -6 0
1 -2 3 4 5 -6 0
1 -2 3 4 -5 6 0
1 -2 3 -4 5 6 0
1 -2 3 -4 -5 -6 0
1 -2 -3 4 5 6 0
1 -2 -3 4 -5 -6 0
1 -2 -3 -4 5 -6 0
1 -2 -3 -4 -5 6 0
-1 2 3 4 5 -6 0
-1 2 3 4 -5 6 0
-1 2 3 -4 5 6 0
-1 2 3 -4 -5 -6 0
-1 2 -3 4 5 6 0
-1 2 -3 4 -5 -6 0
-1 2 -3 -4 5 -6 0
-1 2 -3 -4 -5 6 0
-1 -2 3 4 5 6 0
-1 -2 3 4 -5 -6 0
-1 -2 3 -4 5 -6 0
-1 -2 3 -4 -5 6 0
-1 -2 -3 4 5 -6 0
-1 -2 -3 4 -5 6 0
-1 -2 -3 -4 5 6 0
-1 -2 -3 -4 -5 -6 0
1 7 8 9 10 -11 0
1 7 8 9 -10 11 0
1 7 8 -9 10 11 0
1 7 8 -9 -10 -11 0
1 7 -8 9 10 11 0
1 7 -8 9 -10 -11 0
1 7 -8 -9 10 -11 0
1 7 -8 -9 -10 11 0
1 -7 8 9 10 11 0
1 -7 8 9 -10 -11 0
1 -7 8 -9 10 -11 0
1 -7 8 -9 -10 11 0
1 -7 -8 9 10 -11 0
1 -7 -8 9 -10 11 0
1 -7 -8 -9 10 11 0
1 -7 -8 -9 -10 -11 0
-1 7 8 9 10 11 0
-1 7 8 9 -10 -11 0
-1 7 8 -9 10 -11 0
-1 7 8 -9 -10 11 0
-1 7 -8 9 10 -11 0
-1 7 -8 9 -10 11 0
-1 7 -8 -9 10 11 0
-1 7 -8 -9 -10 -11 0
-1 -7 8 9 10 -11 0
-1 -7 8 9 -10 11 0
-1 -7 8 -9 10 11 0
-1 -7 8 -9 -10 -11 0
-1 -7 -8 9 10 11 0
-1 -7 -8 9 -10 -11 0
-1 -7 -8 -9 10 -11 0
-1 -7 -8 -9 -10 11 0
7 12 13 14 15 16 -17 0
7 12 13 14 15 -16 17 0
7 12 13 14 -15 16 17 0
7 12 13 14 -15 -16 -17 0
7 12 13 -14 15 16 17 0
7 12 13 -14 15 -16 -17 0
7 12 13 -14 -15 16 -17 0
7 12 13 -14 -15 -16 17 0
7 12 -13 14 15 16 17 0
7 12 -13 14 15 -16 -17 0
7 12 -13 14 -15 16 -17 0
7 12 -13 14 -15 -16 17 0
7 12 -13 -14 15 16 -17 0
7 12 -13 -14 15 -16 17 0
7 12 -13 -14 -15 16 17 0
7 12 -13 -14 -15 -16 -17 0
7 -12 13 14 15 16 17 0
7 -12 13 14 15 -16 -17 0
7 -12 13 14 -15 16 -17 0
7 -12 13 14 -15 -16 17 0
7 -12 13 -14 15 16 -17 0
7 -12 13 -14 15 -16 17 0
7 -12 13 -14 -15 16 17 0
7 -12 13 -14 -15 -16 -17 0
7 -12 -13 14 15 16 -17 0
7 -12 -13 14 15 -16 17 0
7 -12 -13 14 -15 16 17 0
7 -12 -13 14 -15 -16 -17 0
7 -12 -13 -14 15 16 17 0
7 -12 -13 -14 15 -16 -17 0
7 -12 -13 -14 -15 16 -17 0
7 -12 -13 -14 -15 -16 17 0
-7 12 13 14 15 16 17 0
-7 12 13 14 15 -16 -17 0
-7 12 13 14 -15 16 -17 0
-7 12 13 14 -15 -16 17 0
-7 12 13 -14 15 16 -17 0
-7 12 13 -14 15 -16 17 0
-7 12 13 -14 -15 16 17 0
-7 12 13 -14 -15 -16 -17 0
-7 12 -13 14 15 16 -17 0
-7 12 -13 14 15 -16 17 0
-7 12 -13 14 -15 16 17 0
-7 12 -13 14 -15 -16 -17 0
-7 12 -13 -14 15 16 17 0
-7 12 -13 -14 15 -16 -17 0
-7 12 -13 -14 -15 16 -17 0
-7 12 -13 -14 -15 -16 17 0
-7 -12 13 14 15 16 -17 0
-7 -12 13 14 15 -16 17 0
-7 -12 13 14 -15 16 17 0
-7 -12 13 14 -15 -16 -17 0
-7 -12 13 -14 15 16 17 0
-7 -12 13 -14 15 -16 -17 0
-7 -12 13 -14 -15 16 -17 0
-7 -12 13 -14 -15 -16 17 0
-7 -12 -13 14 15 16 17 0
-7 -12 -13 14 15 -16 -17 0
-7 -12 -13 14 -15 16 -17 0
-7 -12 -13 14 -15 -16 17 0
-7 -12 -13 -14 15 16 -17 0
-7 -12 -13 -14 15 -16 17 0
-7 -12 -13 -14 -15 16 17 0
-7 -12 -13 -14 -15 -16 -17 0
2 12 18 19 20 -21 0
2 12 18 19 -20 21 0
2 12 18 -19 20 21 0
2 12 18 -19 -20 -21 0
2 12 -18 19 20 21 0
2 12 -18 19 -20 -21 0
2 12 -18 -19 20 -21 0
2 12 -18 -19 -20 21 0
2 -12 18 19 20 21 0
2 -12 18 19 -20 -21 0
2 -12 18 -19 20 -21 0
2 -12 18 -19 -20 21 0
2 -12 -18 19 20 -21 0
2 -12 -18 19 -20 21 0
2 -12 -18 -19 20 21 0
2 -12 -18 -19 -20 -21 0
-2 12 18 19 20 21 0
-2 12 18 19 -20 -21 0
-2 12 18 -19 20 -21 0
-2 12 18 -19 -20 21 0
-2 12 -18 19 20 -21 0
-2 12 -18 19 -20 21 0
-2 12 -18 -19 20 21 0
-2 12 -18 -19 -20 -21 0
-2 -12 18 19 20 -21 0
-2 -12 18 19 -20 21 0
-2 -12 18 -19 20 21 0
-2 -12 18 -19 -20 -21 0
-2 -12 -18 19 20 21 0
-2 -12 -18 19 -20 -21 0
-2 -12 -18 -19 20 -21 0
-2 -12 -18 -19 -20 21 0
13 22 23 24 -25 0
13 22 23 -24 25 0
13 22 -23 24 25 0
13 22 -23 -24 -25 0
13 -22 23 24 25 0
13 -22 23 -24 -25 0
13 -22 -23 24 -25 0
13 -22 -23 -24 25 0
-13 22 23 24 25 0
-13 22 23 -24 -25 0
-13 22 -23 24 -25 0
-13 22 -23 -24 25 0
-13 -22 23 24 -25 0
-13 -22 23 -24 25 0
-13 -22 -23 24 25 0
-13 -22 -23 -24 -25 0
3 14 18 22 26 -27 0
3 14 18 22 -26 27 0
3 14 18 -22 26 27 0
3 14 18 -22 -26 -27 0
3 14 -18 22 26 27 0
3 14 -18 22 -26 -27 0
3 14 -18 -22 26 -27 0
3 14 -18 -22 -26 27 0
3 -14 18 22 26 27 0
3 -14 18 22 -26 -27 0
3 -14 18 -22 26 -27 0
3 -14 18 -22 -26 27 0
3 -14 -18 22 26 -27 0
3 -14 -18 22 -26 27 0
3 -14 -18 -22 26 27 0
3 -14 -18 -22 -26 -27 0
-3 14 18 22 26 27 0
-3 14 18 22 -26 -27 0
-3 14 18 -22 26 -27 0
-3 14 18 -22 -26 27 0
-3 14 -18 22 26 -27 0
-3 14 -18 22 -26 27 0
-3 14 -18 -22 26 27 0
-3 14 -18 -22 -26 -27 0
-3 -14 18 22 26 -27 0
-3 -14 18 22 -26 27 0
-3 -14 18 -22 26 27 0
-3 -14 18 -22 -26 -27 0
-3 -14 -18 22 26 27 0
-3 -14 -18 22 -26 -27 0
-3 -14 -18 -22 26 -27 0
-3 -14 -18 -22 -26 27 0
4 8 15 19 23 -28 0
4 8 15 19 -23 28 0
4 8 15 -19 23 28 0
4 8 15 -19 -23 -28 0
4 8 -15 19 23 28 0
4 8 -15 19 -23 -28 0
4 8 -15 -19 23 -28 0
4 8 -15 -19 -23 28 0
4 -8 15 19 23 28 0
4 -8 15 19 -23 -28 0
4 -8 15 -19 23 -28 0
4 -8 15 -19 -23 28 0
4 -8 -15 19 23 -28 0
4 -8 -15 19 -23 28 0
4 -8 -15 -19 23 28 0
4 -8 -15 -19 -23 -28 0
-4 8 15 19 23 28 0
-4 8 15 19 -23 -28 0
-4 8 15 -19 23 -28 0
-4 8 15 -19 -23 28 0
-4 8 -15 19 23 -28 0
-4 8 -15 19 -23 28 0
-4 8 -15 -19 23 28 0
-4 8 -15 -19 -23 -28 0
-4 -8 15 19 23 -28 0
-4 -8 15 19 -23 28 0
-4 -8 15 -19 23 28 0
-4 -8 15 -19 -23 -28 0
-4 -8 -15 19 23 28 0
-4 -8 -15 19 -23 -28 0
-4 -8 -15 -19 23 -28 0
-4 -8 -15 -19 -23 28 0
5 9 20 -29 0
5 9 -20 29 0
5 -9 20 29 0
5 -9 -20 -29 0
-5 9 20 29 0
-5 9 -20 -29 0
-5 -9 20 -29 0
-5 -9 -20 29 0
6 10 16 21 24 26 -30 0
6 10 16 21 24 -26 30 0
6 10 16 21 -24 26 30 0
6 10 16 21 -24 -26 -30 0
6 10 16 -21 24 26 30 0
6 10 16 -21 24 -26 -30 0
6 10 16 -21 -24 26 -30 0
6 10 16 -21 -24 -26 30 0
6 10 -16 21 24 26 30 0
6 10 -16 21 24 -26 -30 0
6 10 -16 21 -24 26 -30 0
6 10 -16 21 -24 -26 30 0
6 10 -16 -21 24 26 -30 0
6 10 -16 -21 24 -26 30 0
6 10 -16 -21 -24 26 30 0
6 10 -16 -21 -24 -26 -30 0
6 -10 16 21 24 26 30 0
6 -10 16 21 24 -26 -30 0
6 -10 16 21 -24 26 -30 0
6 -10 16 21 -24 -26 30 0
6 -10 16 -21 24 26 -30 0
6 -10 16 -21 24 -26 30 0
6 -10 16 -21 -24 26 30 0
6 -10 16 -21 -24 -26 -30 0
6 -10 -16 21 24 26 -30 0
6 -10 -16 21 24 -26 30 0
6 -10 -16 21 -24 26 30 0
6 -10 -16 21 -24 -26 -30 0
6 -10 -16 -21 24 26 30 0
6 -10 -16 -21 24 -26 -30 0
6 -10 -16 -21 -24 26 -30 0
6 -10 -16 -21 -24 -26 30 0
-6 10 16 21 24 26 30 0
-6 10 16 21 24 -26 -30 0
-6 10 16 21 -24 26 -30 0
-6 10 16 21 -24 -26 30 0
-6 10 16 -21 24 26 -30 0
-6 10 16 -21 24 -26 30 0
-6 10 16 -21 -24 26 30 0
-6 10 16 -21 -24 -26 -30 0
-6 10 -16 21 24 26 -30 0
-6 10 -16 21 24 -26 30 0
-6 10 -16 21 -24 26 30 0
-6 10 -16 21 -24 -26 -30 0
-6 10 -16 -21 24 26 30 0
-6 10 -16 -21 24 -26 -30 0
-6 10 -16 -21 -24 26 -30 0
-6 10 -16 -21 -24 -26 30 0
-6 -10 16 21 24 26 -30 0
-6 -10 16 21 24 -26 30 0
-6 -10 16 21 -24 26 30 0
-6 -10 16 21 -24 -26 -30 0
-6 -10 16 -21 24 26 30 0
-6 -10 16 -21 24 -26 -30 0
-6 -10 16 -21 -24 26 -30 0
-6 -10 16 -21 -24 -26 30 0
-6 -10 -16 21 24 26 30 0
-6 -10 -16 21 24 -26 -30 0
-6 -10 -16 21 -24 26 -30 0
-6 -10 -16 21 -24 -26 30 0
-6 -10 -16 -21 24 26 -30 0
-6 -10 -16 -21 24 -26 30 0
-6 -10 -16 -21 -24 26 30 0
-6 -10 -16 -21 -24 -26 -30 0
11 17 25 27 28 29 -30 0
11 17 25 27 28 -29 30 0
11 17 25 27 -28 29 30 0
11 17 25 27 -28 -29 -30 0
11 17 25 -27 28 29 30 0
11 17 25 -27 28 -29 -30 0
11 17 25 -27 -28 29 -30 0
11 17 25 -27 -28 -29 30 0
11 17 -25 27 28 29 30 0
11 17 -25 27 28 -29 -30 0
11 17 -25 27 -28 29 -30 0
11 17 -25 27 -28 -29 30 0
11 17 -25 -27 28 29 -30 0
11 17 -25 -27 28 -29 30 0
11 17 -25 -27 -28 29 30 0
11 17 -25 -27 -28 -29 -30 0
11 -17 25 27 28 29 30 0
11 -17 25 27 28 -29 -30 0
11 -17 25 27 -28 29 -30 0
11 -17 25 27 -28 -29 30 0
11 -17 25 -27 28 29 -30 0
11 -17 25 -27 28 -29 30 0
11 -17 25 -27 -28 29 30 0
11 -17 25 -27 -28 -29 -30 0
11 -17 -25 27 28 29 -30 0
11 -17 -25 27 28 -29 30 0
11 -17 -25 27 -28 29 30 0
11 -17 -25 27 -28 -29 -30 0
11 -17 -25 -27 28 29 30 0
11 -17 -25 -27 28 -29 -30 0
11 -17 -25 -27 -28 29 -30 0
11 -17 -25 -27 -28 -29 30 0
-11 17 25 27 28 29 30 0
-11 17 25 27 28 -29 -30 0
-11 17 25 27 -28 29 -30 0
-11 17 25 27 -28 -29 30 0
-11 17 25 -27 28 29 -30 0
-11 17 25 -27 28 -29 30 0
-11 17 25 -27 -28 29 30 0
-11 17 25 -27 -28 -29 -30 0
-11 17 -25 27 28 29 -30 0
-11 17 -25 27 28 -29 30 0
-11 17 -25 27 -28 29 30 0
-11 17 -25 27 -28 -29 -30 0
-11 17 -25 -27 28 29 30 0
-11 17 -25 -27 28 -29 -30 0
-11 17 -25 -27 -28 29 -30 0
-11 17 -25 -27 -28 -29 30 0
-11 -17 25 27 28 29 -30 0
-11 -17 25 27 28 -29 30 0
-11 -17 25 27 -28 29 30 0
-11 -17 25 27 -28 -29 -30 0
-11 -17 25 -27 28 29 30 0
-11 -17 25 -27 28 -29 -30 0
-11 -17 25 -27 -28 29 -30 0
-11 -17 25 -27 -28 -29 30 0
-11 -17 -25 27 28 29 30 0
-11 -17 -25 27 28 -29 -30 0
-11 -17 -25 27 -28 29 -30 0
-11 -17 -25 27 -28 -29 30 0
-11 -17 -25 -27 28 29 -30 0
-11 -17 -25 -27 28 -29 30 0
-11 -17 -25 -27 -28 29 30 0
-11 -17 -25 -27 -28 -29 -30 0